JOBS = 1..6;
MACHINES = 1..3;
SPEED = 1;
time = array3d(JOBS,MACHINES,1..SPEED,[84,24,27,73,57,81,73,86,74,59,45,76,47,32,22,62,90,81]);
energy = array3d(JOBS,MACHINES,1..SPEED,[43,78,76,48,56,44,48,42,47,55,63,46,62,72,80,53,40,44]);
precedence = array2d(JOBS,MACHINES,[0,2,1,1,0,2,2,0,1,1,0,2,1,0,2,1,2,0]);
ME = 1;
TE = 111;
st_old = array2d(JOBS,MACHINES,[0,111,84,143,45,295,325,135,221,84,0,143,278,221,376,216,278,0]);
SpeedScaling = array2d(JOBS,MACHINES,[1,1,1,1,1,1,1,1,1,1,1,1,1,1,1,1,1,1]);
